\ Model linear program
\ LP format - for model browsing. Use MPS format to capture full model detail.
Maximize
  4 x1 + 3 x2
Subject To
 c1: 2 x1 + x2 <= 150
 c2: 3 x1 + 4 x2 <= 360
 c4: x1 + x2 <= 100
Bounds
End
